HC+Restart-TSP-170514/HC+Restart/Instances/sample10.tour
NAME: sample10
TYPE: TSP
COMMENT: 10-city geometric problem
DIMENSION: 10
EDGE_WEIGHT_TYPE : EUC_2D
NODE_COORD_SECTION
1 64 96
2 80 39
3 69 23
4 72 42
5 48 67
6 58 43
7 81 34
8 79 17
9 30 23
10 42 67
EOF